(set-logic QF_UF)
(declare-fun A0 () Bool)
(declare-fun A1 () Bool)
(declare-fun A2 () Bool)
(declare-fun A4 () Bool)
(declare-fun A6 () Bool)
(declare-fun A7 () Bool)
(declare-fun A8 () Bool)
(declare-fun A9 () Bool)
(declare-fun A10 () Bool)
(declare-fun A11 () Bool)
(declare-fun A12 () Bool)
(declare-fun A13 () Bool)
(declare-fun A14 () Bool)
(declare-fun A15 () Bool)
(declare-fun A16 () Bool)
(declare-fun A17 () Bool)
(declare-fun A18 () Bool)
(declare-fun A19 () Bool)
(declare-fun A20 () Bool)
(declare-fun A21 () Bool)
(declare-fun A22 () Bool)
(declare-fun A23 () Bool)
(declare-fun A24 () Bool)
(assert (let ((.def_0 (not A8))) (let ((.def_1 (and .def_0 A23))) (let ((.def_2 (not .def_1))) (let ((.def_3 (and A2 A21))) (let ((.def_4 (not .def_3))) (let ((.def_5 (and .def_4 .def_2))) (let ((.def_6 (not .def_5))) (let ((.def_7 (not A7))) (let ((.def_8 (or .def_7 A1))) (let ((.def_9 (not .def_8))) (let ((.def_10 (or .def_9 .def_3))) (let ((.def_11 (not .def_10))) (let ((.def_12 (= .def_11 .def_6))) (let ((.def_13 (not A24))) (let ((.def_14 (or .def_0 .def_13))) (let ((.def_15 (not .def_14))) (let ((.def_16 (not A10))) (let ((.def_17 (or A19 .def_16))) (let ((.def_18 (and .def_17 .def_15))) (let ((.def_19 (not A17))) (let ((.def_20 (or .def_19 A1))) (let ((.def_21 (not A18))) (let ((.def_22 (and .def_21 A23))) (let ((.def_23 (or .def_22 .def_20))) (let ((.def_24 (not .def_23))) (let ((.def_25 (and .def_24 .def_18))) (let ((.def_26 (and .def_25 .def_12))) (let ((.def_27 (not A14))) (let ((.def_28 (or .def_27 .def_21))) (let ((.def_29 (not A20))) (let ((.def_30 (= .def_29 A8))) (let ((.def_31 (not .def_30))) (let ((.def_32 (and .def_31 .def_28))) (let ((.def_33 (not .def_32))) (let ((.def_34 (not A0))) (let ((.def_35 (and .def_34 A21))) (let ((.def_36 (not .def_35))) (let ((.def_37 (not A6))) (let ((.def_38 (and A7 .def_37))) (let ((.def_39 (or .def_38 .def_36))) (let ((.def_40 (not .def_39))) (let ((.def_41 (or .def_40 .def_33))) (let ((.def_42 (not A19))) (let ((.def_43 (not A16))) (let ((.def_44 (and .def_43 .def_42))) (let ((.def_45 (not .def_44))) (let ((.def_46 (or A11 A1))) (let ((.def_47 (= .def_46 .def_45))) (let ((.def_48 (not .def_47))) (let ((.def_49 (not A23))) (let ((.def_50 (= .def_49 A21))) (let ((.def_51 (= .def_37 A4))) (let ((.def_52 (and .def_51 .def_50))) (let ((.def_53 (not .def_52))) (let ((.def_54 (or .def_53 .def_48))) (let ((.def_55 (and .def_54 .def_41))) (let ((.def_56 (not .def_55))) (let ((.def_57 (= .def_56 .def_26))) (let ((.def_58 (= A1 A2))) (let ((.def_59 (not .def_58))) (let ((.def_60 (or A4 A11))) (let ((.def_61 (or .def_60 .def_59))) (let ((.def_62 (or A11 .def_49))) (let ((.def_63 (and A18 .def_13))) (let ((.def_64 (not .def_63))) (let ((.def_65 (and .def_64 .def_62))) (let ((.def_66 (not .def_65))) (let ((.def_67 (or .def_66 .def_61))) (let ((.def_68 (not .def_67))) (let ((.def_69 (not A9))) (let ((.def_70 (or .def_0 .def_69))) (let ((.def_71 (not A2))) (let ((.def_72 (and .def_71 A17))) (let ((.def_73 (or .def_72 .def_70))) (let ((.def_74 (or A4 .def_49))) (let ((.def_75 (not A12))) (let ((.def_76 (and .def_29 .def_75))) (let ((.def_77 (or .def_76 .def_74))) (let ((.def_78 (and .def_77 .def_73))) (let ((.def_79 (and .def_78 .def_68))) (let ((.def_80 (not A15))) (let ((.def_81 (or .def_42 .def_80))) (let ((.def_82 (not A4))) (let ((.def_83 (and .def_42 .def_82))) (let ((.def_84 (= .def_83 .def_81))) (let ((.def_85 (not .def_84))) (let ((.def_86 (not A13))) (let ((.def_87 (or .def_86 .def_71))) (let ((.def_88 (and .def_7 A0))) (let ((.def_89 (not .def_88))) (let ((.def_90 (= .def_89 .def_87))) (let ((.def_91 (not .def_90))) (let ((.def_92 (and .def_91 .def_85))) (let ((.def_93 (= A22 .def_71))) (let ((.def_94 (and .def_29 .def_0))) (let ((.def_95 (or .def_94 .def_93))) (let ((.def_96 (or .def_86 A11))) (let ((.def_97 (and A21 A18))) (let ((.def_98 (or .def_97 .def_96))) (let ((.def_99 (or .def_98 .def_95))) (let ((.def_100 (not .def_99))) (let ((.def_101 (and .def_100 .def_92))) (let ((.def_102 (not .def_101))) (let ((.def_103 (or .def_102 .def_79))) (let ((.def_104 (not .def_103))) (let ((.def_105 (or .def_104 .def_57))) (let ((.def_106 (not .def_105))) .def_106))))))))))))))))))))))))))))))))))))))))))))))))))))))))))))))))))))))))))))))))))))))))))))))))))))))))))))
(check-sat)
